2	25
85	970	191	793	838	127	72	134	100	778	621	805	807	165	857	593	345	706	682	850	932	72	320	180	94	
628	456	288	240	502	795	486	347	169	968	419	789	400	570	450	138	657	246	995	92	271	30	338	145	378	
4049	4049	
